Default write of storage_offers_DA.csv just to have a file (but constraint should be inactive)
Reading model...
...model read.
creating competitive generators file...
...competitive generators recorded.
Loading data...
.. real-time data read.
Compiling instance...
...instance created.
Creating Offer Mitigation (model will solve as dispatch if TRUE)...
NOTE: storage offers will not be mitigated
...storage offer mitigation file created
Converting model to MPEC...
...converted
NOTE: initial MIP solve with only storage competitive to get feasible solution
Solving...

Welcome to IBM(R) ILOG(R) CPLEX(R) Interactive Optimizer 12.9.0.0
  with Simplex, Mixed Integer & Barrier Optimizers
5725-A06 5725-A29 5724-Y48 5724-Y49 5724-Y54 5724-Y55 5655-Y21
Copyright IBM Corp. 1988, 2019.  All Rights Reserved.

Type 'help' for a list of available commands.
Type 'help' followed by a command name for more
information on commands.

CPLEX> Logfile 'cplex.log' closed.
Logfile 'C:\Users\llavin\Desktop\test78\logs\tmpxstrr1xy.cplex.log' open.
CPLEX> New value for parallel optimization mode: -1
CPLEX> New value for mixed integer optimality gap tolerance: 0.01
CPLEX> New value for deterministic time limit in ticks: 30000
CPLEX> Problem 'C:\Users\llavin\Desktop\test78\logs\tmpm1_ayogh.pyomo.lp' read.
Read time = 0.52 sec. (29.15 ticks)
CPLEX> Problem name         : C:\Users\llavin\Desktop\test78\logs\tmpm1_ayogh.pyomo.lp
Objective sense      : Maximize
Variables            :  106816  [Nneg: 1,  Box: 43669,  Free: 8832,
                                 Binary: 54314]
Objective nonzeros   :   17473
Linear constraints   :  244828  [Less: 82143,  Greater: 117460,  Equal: 45225]
  Nonzeros           :  576838
  RHS nonzeros       :  133722

Variables            : Min LB: -5000.000        Max UB: 1000000.       
Objective nonzeros   : Min   : 0.1000000        Max   : 722.0000       
Linear constraints   :
  Nonzeros           : Min   : 0.1000000        Max   : 1000000.       
  RHS nonzeros       : Min   : 0.1000000        Max   : 1000000.       
CPLEX> CPXPARAM_Parallel                                -1
CPXPARAM_DetTimeLimit                            30000
CPXPARAM_MIP_Tolerances_MIPGap                   0.01
Tried aggregator 3 times.
MIP Presolve eliminated 177592 rows and 40553 columns.
MIP Presolve added 6192 rows and 0 columns.
MIP Presolve modified 48422 coefficients.
Aggregator did 25591 substitutions.
Reduced MIP has 47837 rows, 39152 columns, and 142757 nonzeros.
Reduced MIP has 15411 binaries, 0 generals, 0 SOSs, and 0 indicators.
Presolve time = 0.61 sec. (339.67 ticks)
Probing fixed 877 vars, tightened 16330 bounds.
Probing time = 0.41 sec. (17.36 ticks)
Tried aggregator 2 times.
MIP Presolve eliminated 1944 rows and 1754 columns.
MIP Presolve modified 5520 coefficients.
Aggregator did 144 substitutions.
Reduced MIP has 45749 rows, 37254 columns, and 136683 nonzeros.
Reduced MIP has 14534 binaries, 0 generals, 0 SOSs, and 0 indicators.
Presolve time = 0.22 sec. (141.19 ticks)
Probing fixed 0 vars, tightened 493 bounds.
Probing time = 0.63 sec. (21.18 ticks)
Clique table members: 105649.
MIP emphasis: balance optimality and feasibility.
MIP search method: dynamic search.
Parallel mode: opportunistic, using up to 32 threads.
Root relaxation solution time = 1.11 sec. (569.38 ticks)

        Nodes                                         Cuts/
   Node  Left     Objective  IInf  Best Integer    Best Bound    ItCnt     Gap

      0     0      -21.7787  3035                    -21.7787      113         
      0     0      -21.8494    25                Flowcuts: 27      121         
      0     0      -21.8847    22                    Cuts: 17      128         
      0     0      -21.9554    22                    Cuts: 13      132         
      0     0      -22.0386    22                    Cuts: 13      138         
      0     0      -22.2271    22                Flowcuts: 12      141         
      0     0      -22.3248    23                     Cuts: 7      154         
      0     0      -22.3248    23                  MIRcuts: 1      155         
      0     0      -22.3379    26                 Flowcuts: 1      161         
      0     0      -22.3447    22                Flowcuts: 11      164         
      0    13      -49.3942    13                    -27.8127      217         
Elapsed time = 9.94 sec. (5884.97 ticks, tree = 0.02 MB, solutions = 0)
    406    71      -45.6071     5                    -28.1904      478         
*   459+  171                          -57.0036      -28.1904            50.55%
    775   191      -40.4580    11      -57.0036      -28.1904     2614   50.55%
   1074   272      -50.6060     6      -57.0036      -28.1904     4459   50.55%
   1473   400      -41.5702     2      -57.0036      -28.1904     5178   50.55%
   1902   740      -46.0396     5      -57.0036      -28.1904     7121   50.55%
   2372   879      -52.3372     5      -57.0036      -35.7125     8055   37.35%
   2863  1369        cutoff            -57.0036      -37.3322    11307   34.51%
   3290  1400      -46.4946     8      -57.0036      -38.7904    11588   31.95%
   5324  2026        cutoff            -57.0036      -43.7853    18525   23.19%
Elapsed time = 28.92 sec. (8788.28 ticks, tree = 21.31 MB, solutions = 5)
   7086  2282      -53.5454     3      -57.0036      -46.0672    24413   19.19%
*  8310     0      integral     0      -57.0036      -57.0036    37710    0.00%

GUB cover cuts applied:  6
Clique cuts applied:  5
Cover cuts applied:  5
Implied bound cuts applied:  36
Flow cuts applied:  70
Mixed integer rounding cuts applied:  116
Gomory fractional cuts applied:  25

Root node processing (before b&c):
  Real time             =    7.89 sec. (5830.63 ticks)
Parallel b&c, 32 threads:
  Real time             =   32.83 sec. (6718.58 ticks)
  Sync time (average)   =    1.64 sec.
  Wait time (average)   =    0.00 sec.
                          ------------
Total (root+branch&cut) =   40.72 sec. (12549.21 ticks)

Solution pool: 5 solutions saved.

MIP - Integer optimal solution:  Objective = -5.7003554010e+01
Solution time =   40.75 sec.  Iterations = 37710  Nodes = 8310
Deterministic time = 12549.52 ticks  (307.96 ticks/sec)

CPLEX> Incumbent solution written to file 'C:\Users\llavin\Desktop\test78\logs\tmp_q9mzna3.cplex.sol'.
CPLEX> NOTE: no warmstart specified for MIP iteration, default behavior is true
NOTE: resolving with all competitive generators using storage-only solution to warmstart
Solving...

Welcome to IBM(R) ILOG(R) CPLEX(R) Interactive Optimizer 12.9.0.0
  with Simplex, Mixed Integer & Barrier Optimizers
5725-A06 5725-A29 5724-Y48 5724-Y49 5724-Y54 5724-Y55 5655-Y21
Copyright IBM Corp. 1988, 2019.  All Rights Reserved.

Type 'help' for a list of available commands.
Type 'help' followed by a command name for more
information on commands.

CPLEX> Logfile 'cplex.log' closed.
Logfile 'C:\Users\llavin\Desktop\test78\logs\tmpg_q0xpie.cplex.log' open.
CPLEX> New value for parallel optimization mode: -1
CPLEX> New value for mixed integer optimality gap tolerance: 0.01
CPLEX> New value for deterministic time limit in ticks: 30000
CPLEX> Problem 'C:\Users\llavin\Desktop\test78\logs\tmpqefuyig0.pyomo.lp' read.
Read time = 0.51 sec. (29.19 ticks)
CPLEX> MIP start file 'C:\Users\llavin\Desktop\test78\logs\tmpa26shlqx.cplex.mst' read.
CPLEX> Problem name         : C:\Users\llavin\Desktop\test78\logs\tmpqefuyig0.pyomo.lp
Objective sense      : Maximize
Variables            :  108256  [Nneg: 1,  Box: 45109,  Free: 8832,
                                 Binary: 54314]
Objective nonzeros   :   18865
Linear constraints   :  244828  [Less: 82143,  Greater: 117460,  Equal: 45225]
  Nonzeros           :  576838
  RHS nonzeros       :  133722

Variables            : Min LB: -5000.000        Max UB: 1000000.       
Objective nonzeros   : Min   : 0.1000000        Max   : 722.0000       
Linear constraints   :
  Nonzeros           : Min   : 0.1000000        Max   : 1000000.       
  RHS nonzeros       : Min   : 0.1000000        Max   : 1000000.       
CPLEX> CPXPARAM_Parallel                                -1
CPXPARAM_DetTimeLimit                            30000
CPXPARAM_MIP_Tolerances_MIPGap                   0.01
Warning:  No solution found from 1 MIP starts.
Retaining values of one MIP start for possible repair.
Tried aggregator 3 times.
MIP Presolve eliminated 177592 rows and 41993 columns.
MIP Presolve added 6192 rows and 0 columns.
MIP Presolve modified 48422 coefficients.
Aggregator did 25591 substitutions.
Reduced MIP has 47837 rows, 39152 columns, and 142757 nonzeros.
Reduced MIP has 15411 binaries, 0 generals, 0 SOSs, and 0 indicators.
Presolve time = 0.58 sec. (340.39 ticks)
Probing fixed 877 vars, tightened 16330 bounds.
Probing time = 0.39 sec. (17.36 ticks)
Tried aggregator 2 times.
MIP Presolve eliminated 1944 rows and 1754 columns.
MIP Presolve modified 5520 coefficients.
Aggregator did 144 substitutions.
Reduced MIP has 45749 rows, 37254 columns, and 136683 nonzeros.
Reduced MIP has 14534 binaries, 0 generals, 0 SOSs, and 0 indicators.
Presolve time = 0.22 sec. (141.20 ticks)
Probing fixed 0 vars, tightened 493 bounds.
Probing time = 0.61 sec. (21.19 ticks)
Clique table members: 105649.
MIP emphasis: balance optimality and feasibility.
MIP search method: dynamic search.
Parallel mode: opportunistic, using up to 32 threads.
Root relaxation solution time = 0.91 sec. (553.96 ticks)

        Nodes                                         Cuts/
   Node  Left     Objective  IInf  Best Integer    Best Bound    ItCnt     Gap

      0     0   357885.2102   523                 357885.2102       51         
      0     0   357634.6277   448                  Cuts: 1513      691         
      0     0   357621.7194   369                   Cuts: 799      847         
      0     0   357616.4698   370                    Cuts: 26      871         
      0     0   357612.2708   233                    Cuts: 28      897         
      0     0   357610.4572   232                    Cuts: 25      919         
Repair heuristic found nothing.
      0     2   357610.4572   232                     Cuts: 6      919         
Elapsed time = 11.55 sec. (5640.54 ticks, tree = 0.02 MB, solutions = 0)
    141    63   357251.3220   244                 357582.1403     2249         
    443   115   356950.0399   267                 357570.6672     3216         
    819    60   355613.8238   169                 357570.6672     2133         
   1222   340   354111.0987    86                 357570.6672     5743         
   1589  1074   356684.8923   264                 357570.6672    11677         
   1973  1236   356959.2294   186                 357570.6672    13007         
*  2051+ 1804                       353454.0004   357570.6672             1.16%
   2451  1316   354695.6049   112   353454.0004   357570.6672    13404    1.16%
   2851  1690   354022.5549    70   353766.6615   357570.6672    16536    1.08%
   4238  3069   355153.0733    56   353766.6615   357570.6672    35540    1.08%
Elapsed time = 32.00 sec. (8546.62 ticks, tree = 48.32 MB, solutions = 2)
   5687  4503   355817.9186    76   353766.6615   357570.6672    47258    1.08%
   6348  5971   357383.9041   257   353766.6615   357518.6336    73181    1.06%
   6405    43   357256.1603   245   353766.6615   357518.6336    73485    1.06%
   6432    19   357284.2879   254   353766.6615   357518.6336    72966    1.06%
   6457    53   357128.5743   236   353766.6615   357518.6336    73558    1.06%

Clique cuts applied:  23
Cover cuts applied:  15
Implied bound cuts applied:  12
Flow cuts applied:  264
Mixed integer rounding cuts applied:  50
Zero-half cuts applied:  1
Gomory fractional cuts applied:  5

Root node processing (before b&c):
  Real time             =    8.13 sec. (5568.19 ticks)
Parallel b&c, 32 threads:
  Real time             =   62.67 sec. (24451.37 ticks)
  Sync time (average)   =    4.98 sec.
  Wait time (average)   =    0.29 sec.
                          ------------
Total (root+branch&cut) =   70.80 sec. (30019.56 ticks)

Solution pool: 2 solutions saved.

MIP - Deterministic time limit exceeded, integer feasible:  Objective =  3.5376666146e+05
Current MIP best bound =  3.5748802045e+05 (gap = 3721.36, 1.05%)
Solution time =   70.83 sec.  Iterations = 75342  Nodes = 6478 (124)
Deterministic time = 30019.87 ticks  (423.84 ticks/sec)

CPLEX> Incumbent solution written to file 'C:\Users\llavin\Desktop\test78\logs\tmp_528c55d.cplex.sol'.
CPLEX> Exporting results... 
